17	4
13	13	12	15	
0	0	0	0	0	3	2	3	4	
10	5	0	0	8	2	12	17	
4	10	0	5	0	3	5	8	17	
1	5	0	1	0	3	6	17	17	
3	0	0	10	5	3	7	10	17	
125	3	0	0	0	3	16	17	17	
250	0	0	5	0	1	9	
25	0	4	0	0	1	11	
100	5	0	0	7	1	17	
150	1	4	4	8	2	13	17	
200	2	0	0	1	2	15	17	
175	0	10	7	6	1	17	
7	10	0	0	5	1	14	
4	0	6	0	0	2	17	17	
3	9	0	3	10	1	17	
10	3	5	0	0	1	17	
0	0	0	0	0	0	
